r = [
0,18,2,10,23,40,26,40,29,17,22,14,31,33,5,17,27,28,22,9,6,36,8,27,34,26,0
];
p = [
0,27,22,3,22,29,17,11,13,8,20,3,14,6,12,9,23,27,16,12,26,10,17,24,11,29,0
];
e = [
0,20,4,19,17,12,11,17,13,8,2,2,8,3,6,1,20,11,17,7,18,11,18,11,15,13,0
];
d = [
0,356,311,319,490,408,332,439,349,393,334,288,361,323,347,401,361,364,463,322,320,382,290,386,500,360,506
];
d_bar = [
0,370,322,321,501,423,341,445,356,397,344,290,368,326,353,406,373,378,471,328,333,387,299,398,506,375,506
];
w = [
0,1.428571429,0.363636364,9.5,1.545454545,0.8,1.222222222,2.833333333,1.857142857,2,0.2,1,1.142857143,1,1,0.2,1.666666667,0.785714286,2.125,1.166666667,1.384615385,2.2,2,0.916666667,2.5,0.866666667,0
];
